param set_len = 24;
param target_sum = 3076034755;
param values := [1] 113703764 [2] 44842211 [3] 92426059 [4] 245124094 [5] 119344321 [6] 72218952 [7] 452253988 [8] 122013353 [9] 467879859 [10] 73747641 [11] 234731711 [12] 395080915 [13] 260767600 [14] 70333508 [15] 153489370 [16] 274313384 [17] 394251214 [18] 163136897 [19] 148353553 [20] 206616495 [21] 9777642 [22] 337925794 [23] 24947512 [24] 109910087 ;
